p edge 1540 3960
e 1 385
e 1 386
e 1 645
e 1 646
e 1 937
e 1 418
e 1 841
e 1 842
e 1 529
e 1 530
e 1 417
e 1 938
e 1 773
e 1 541
e 1 542
e 1 774
e 2 844
e 2 387
e 2 420
e 2 775
e 2 647
e 2 648
e 2 843
e 2 776
e 2 419
e 2 532
e 2 531
e 2 388
e 2 940
e 2 939
e 2 543
e 2 544
e 3 289
e 3 290
e 3 978
e 3 517
e 3 518
e 3 833
e 3 706
e 3 301
e 3 302
e 3 433
e 3 434
e 3 977
e 3 1113
e 3 1114
e 3 705
e 3 834
e 4 979
e 4 291
e 4 292
e 4 519
e 4 520
e 4 707
e 4 303
e 4 304
e 4 435
e 4 436
e 4 708
e 4 836
e 4 1116
e 4 835
e 4 1115
e 4 980
e 5 421
e 5 422
e 5 425
e 5 426
e 5 781
e 5 782
e 5 1501
e 5 1502
e 5 1113
e 5 997
e 5 629
e 5 630
e 5 697
e 5 698
e 5 1115
e 5 998
e 5 797
e 5 798
e 5 853
e 5 854
e 6 1116
e 6 855
e 6 423
e 6 424
e 6 427
e 6 428
e 6 783
e 6 784
e 6 1114
e 6 1504
e 6 856
e 6 1000
e 6 1503
e 6 631
e 6 632
e 6 999
e 6 699
e 6 700
e 6 799
e 6 800
e 7 257
e 7 258
e 7 1057
e 7 1058
e 7 693
e 7 694
e 7 1529
e 7 1530
e 8 259
e 8 1060
e 8 1059
e 8 260
e 8 695
e 8 696
e 8 1531
e 8 1532
e 9 1345
e 9 1346
e 9 741
e 9 742
e 9 297
e 9 298
e 9 427
e 9 1082
e 9 973
e 9 974
e 9 425
e 9 405
e 9 406
e 9 1081
e 9 345
e 9 346
e 10 1347
e 10 428
e 10 743
e 10 744
e 10 426
e 10 299
e 10 300
e 10 975
e 10 976
e 10 1084
e 10 1348
e 10 407
e 10 408
e 10 347
e 10 348
e 10 1083
e 11 581
e 11 582
e 11 666
e 11 1421
e 11 665
e 11 1197
e 11 1198
e 11 1422
e 11 922
e 11 633
e 11 921
e 11 245
e 11 246
e 11 634
e 11 409
e 11 410
e 11 1429
e 11 1430
e 12 636
e 12 668
e 12 1431
e 12 583
e 12 584
e 12 1432
e 12 924
e 12 923
e 12 1200
e 12 1423
e 12 1424
e 12 1199
e 12 247
e 12 248
e 12 411
e 12 412
e 12 635
e 12 667
e 13 1129
e 13 1130
e 13 1342
e 13 753
e 13 754
e 13 1337
e 13 1338
e 13 853
e 13 1341
e 13 855
e 13 1322
e 13 1273
e 13 1274
e 13 285
e 13 286
e 13 1321
e 14 1343
e 14 1324
e 14 1339
e 14 1131
e 14 1132
e 14 1344
e 14 755
e 14 756
e 14 854
e 14 856
e 14 1340
e 14 1275
e 14 1276
e 14 1323
e 14 287
e 14 288
e 15 385
e 15 387
e 15 777
e 15 778
e 15 1326
e 15 277
e 15 278
e 15 941
e 15 942
e 15 433
e 15 435
e 15 245
e 15 1089
e 15 1090
e 15 1325
e 15 1453
e 15 989
e 15 990
e 15 1454
e 15 225
e 15 226
e 15 501
e 15 502
e 15 247
e 15 761
e 15 762
e 16 386
e 16 388
e 16 779
e 16 780
e 16 1327
e 16 279
e 16 280
e 16 1328
e 16 943
e 16 944
e 16 434
e 16 436
e 16 1456
e 16 1091
e 16 1092
e 16 1455
e 16 248
e 16 991
e 16 992
e 16 227
e 16 228
e 16 246
e 16 503
e 16 504
e 16 763
e 16 764
e 17 769
e 17 770
e 17 1285
e 17 1286
e 17 1398
e 17 1397
e 17 1461
e 17 1462
e 17 1141
e 17 1142
e 17 1402
e 17 1401
e 17 1205
e 17 765
e 17 766
e 17 1206
e 18 771
e 18 772
e 18 1207
e 18 1287
e 18 1288
e 18 1464
e 18 1404
e 18 1208
e 18 1463
e 18 1400
e 18 1143
e 18 1144
e 18 1403
e 18 1399
e 18 767
e 18 768
e 19 513
e 19 514
e 19 1385
e 19 1386
e 19 1037
e 19 1038
e 19 1481
e 19 1141
e 19 1143
e 19 1482
e 19 729
e 19 730
e 20 515
e 20 516
e 20 1387
e 20 1388
e 20 1039
e 20 1040
e 20 1142
e 20 1144
e 20 731
e 20 732
e 20 1483
e 20 1484
e 21 705
e 21 1345
e 21 707
e 21 1093
e 21 1094
e 21 1458
e 21 1353
e 21 1354
e 21 589
e 21 590
e 21 1393
e 21 1394
e 21 1457
e 21 313
e 21 314
e 21 1021
e 21 1022
e 21 1347
e 22 706
e 22 708
e 22 1095
e 22 1096
e 22 1346
e 22 1355
e 22 1356
e 22 1459
e 22 591
e 22 592
e 22 1460
e 22 1395
e 22 1348
e 22 1396
e 22 315
e 22 316
e 22 1023
e 22 1024
e 23 257
e 23 353
e 23 259
e 23 354
e 23 585
e 23 586
e 23 757
e 23 758
e 23 1333
e 23 1334
e 24 258
e 24 355
e 24 356
e 24 1335
e 24 1336
e 24 587
e 24 588
e 24 260
e 24 759
e 24 760
e 25 909
e 25 910
e 25 1297
e 25 1298
e 25 281
e 25 282
e 25 1313
e 25 1314
e 25 681
e 25 682
e 25 829
e 25 830
e 25 269
e 25 461
e 25 462
e 25 270
e 25 353
e 25 355
e 25 237
e 25 238
e 25 1017
e 25 1018
e 25 765
e 25 767
e 26 271
e 26 912
e 26 1299
e 26 1300
e 26 283
e 26 284
e 26 1315
e 26 1316
e 26 683
e 26 684
e 26 831
e 26 832
e 26 463
e 26 464
e 26 911
e 26 272
e 26 354
e 26 356
e 26 239
e 26 240
e 26 1019
e 26 1020
e 26 766
e 26 768
e 27 1097
e 27 1098
e 27 333
e 27 334
e 27 1214
e 27 305
e 27 306
e 27 1213
e 27 533
e 27 534
e 27 597
e 27 249
e 27 250
e 27 509
e 27 510
e 27 598
e 28 1100
e 28 599
e 28 1099
e 28 600
e 28 1216
e 28 335
e 28 336
e 28 307
e 28 308
e 28 1215
e 28 535
e 28 536
e 28 251
e 28 252
e 28 511
e 28 512
e 29 1201
e 29 1029
e 29 1030
e 29 1202
e 29 1033
e 29 301
e 29 1065
e 29 1066
e 29 333
e 29 335
e 29 1041
e 29 1042
e 29 303
e 29 1034
e 29 1194
e 29 1193
e 29 381
e 29 382
e 30 1068
e 30 1203
e 30 1031
e 30 1032
e 30 1204
e 30 1035
e 30 1036
e 30 302
e 30 336
e 30 1043
e 30 1044
e 30 1196
e 30 334
e 30 1195
e 30 304
e 30 1067
e 30 383
e 30 384
e 31 577
e 31 578
e 31 421
e 31 358
e 31 423
e 31 1026
e 31 653
e 31 654
e 31 647
e 31 645
e 31 357
e 31 445
e 31 446
e 31 1025
e 32 579
e 32 580
e 32 422
e 32 359
e 32 424
e 32 360
e 32 648
e 32 1027
e 32 655
e 32 656
e 32 646
e 32 1028
e 32 447
e 32 448
e 33 1373
e 33 1397
e 33 1374
e 33 1081
e 33 853
e 33 1399
e 33 856
e 33 377
e 33 378
e 33 1083
e 33 1085
e 33 1086
e 34 1084
e 34 1398
e 34 1376
e 34 1375
e 34 854
e 34 855
e 34 1400
e 34 1082
e 34 379
e 34 380
e 34 1087
e 34 1088
e 35 1409
e 35 1410
e 35 1465
e 35 1466
e 35 1225
e 35 361
e 35 362
e 35 909
e 35 911
e 35 809
e 35 593
e 35 594
e 35 1109
e 35 1110
e 35 810
e 35 857
e 35 858
e 35 1226
e 35 349
e 35 350
e 36 1468
e 36 1411
e 36 812
e 36 1467
e 36 363
e 36 364
e 36 1412
e 36 910
e 36 912
e 36 1228
e 36 595
e 36 596
e 36 1111
e 36 1112
e 36 1227
e 36 859
e 36 860
e 36 811
e 36 351
e 36 352
e 37 1161
e 37 1162
e 37 537
e 37 538
e 37 1433
e 37 1434
e 37 801
e 37 802
e 37 1221
e 37 1222
e 37 1485
e 37 1357
e 37 1358
e 37 1486
e 37 337
e 37 338
e 37 477
e 37 478
e 37 229
e 37 230
e 37 489
e 37 490
e 38 1163
e 38 1164
e 38 1435
e 38 540
e 38 539
e 38 803
e 38 804
e 38 1223
e 38 1224
e 38 1359
e 38 1360
e 38 339
e 38 340
e 38 1487
e 38 1488
e 38 1436
e 38 479
e 38 480
e 38 231
e 38 232
e 38 491
e 38 492
e 39 769
e 39 771
e 39 1161
e 39 717
e 39 1163
e 39 653
e 39 430
e 39 655
e 39 718
e 39 429
e 40 770
e 40 772
e 40 1162
e 40 432
e 40 1164
e 40 654
e 40 719
e 40 656
e 40 431
e 40 720
e 41 1281
e 41 1282
e 41 917
e 41 918
e 41 1445
e 41 1446
e 41 1325
e 41 1327
e 41 953
e 41 954
e 41 1209
e 41 333
e 41 336
e 41 593
e 41 441
e 41 595
e 41 1493
e 41 1494
e 41 442
e 41 1210
e 41 1253
e 41 1254
e 41 621
e 41 622
e 41 501
e 41 503
e 42 1283
e 42 1284
e 42 919
e 42 920
e 42 1447
e 42 1448
e 42 1326
e 42 1328
e 42 1211
e 42 956
e 42 334
e 42 335
e 42 594
e 42 596
e 42 1495
e 42 1496
e 42 955
e 42 443
e 42 1212
e 42 1255
e 42 1256
e 42 623
e 42 624
e 42 502
e 42 504
e 42 444
e 43 865
e 43 866
e 43 1186
e 43 1261
e 43 1185
e 43 845
e 43 846
e 43 1262
e 43 337
e 43 1337
e 43 339
e 43 757
e 43 1302
e 43 759
e 43 633
e 43 1301
e 43 635
e 43 1426
e 43 1425
e 43 1339
e 44 1304
e 44 867
e 44 868
e 44 1188
e 44 1264
e 44 1428
e 44 1187
e 44 847
e 44 848
e 44 338
e 44 1427
e 44 340
e 44 1263
e 44 758
e 44 1303
e 44 760
e 44 634
e 44 636
e 44 1338
e 44 1340
e 45 1137
e 45 1138
e 45 325
e 45 326
e 45 690
e 45 489
e 45 1362
e 45 491
e 45 1037
e 45 1039
e 45 689
e 45 569
e 45 1361
e 45 1189
e 45 249
e 45 570
e 45 251
e 45 1405
e 45 1406
e 45 1190
e 46 1408
e 46 572
e 46 1139
e 46 327
e 46 328
e 46 490
e 46 1364
e 46 492
e 46 1363
e 46 1038
e 46 1040
e 46 1140
e 46 691
e 46 692
e 46 250
e 46 571
e 46 252
e 46 1192
e 46 1407
e 46 1191
e 47 737
e 47 738
e 47 389
e 47 390
e 47 1501
e 47 1101
e 47 1102
e 47 1137
e 47 1234
e 47 1139
e 47 1503
e 47 1469
e 47 1470
e 47 1233
e 48 1236
e 48 739
e 48 740
e 48 391
e 48 392
e 48 1103
e 48 1104
e 48 1138
e 48 1235
e 48 1140
e 48 1504
e 48 1502
e 48 1471
e 48 1472
e 49 609
e 49 610
e 49 965
e 49 966
e 49 349
e 49 989
e 49 1333
e 49 991
e 49 1335
e 49 1365
e 49 669
e 49 670
e 49 351
e 49 1366
e 50 611
e 50 612
e 50 967
e 50 968
e 50 1368
e 50 990
e 50 1334
e 50 1367
e 50 1336
e 50 352
e 50 992
e 50 350
e 50 671
e 50 672
e 51 785
e 51 1459
e 51 1041
e 51 658
e 51 553
e 51 554
e 51 1001
e 51 1197
e 51 1330
e 51 1199
e 51 1329
e 51 657
e 51 786
e 51 1043
e 51 1457
e 51 949
e 51 950
e 51 1002
e 51 1309
e 51 1310
e 52 1044
e 52 1004
e 52 1458
e 52 1332
e 52 555
e 52 556
e 52 659
e 52 1198
e 52 1460
e 52 1042
e 52 787
e 52 788
e 52 660
e 52 951
e 52 952
e 52 1331
e 52 1200
e 52 1003
e 52 1311
e 52 1312
e 53 901
e 53 902
e 53 397
e 53 398
e 53 985
e 53 986
e 53 677
e 53 678
e 53 1321
e 53 1323
e 53 1341
e 53 1343
e 53 1489
e 53 1490
e 53 1369
e 53 1370
e 53 605
e 53 606
e 53 865
e 53 867
e 53 361
e 53 363
e 53 1397
e 53 1400
e 53 253
e 53 254
e 54 903
e 54 904
e 54 399
e 54 400
e 54 1371
e 54 1372
e 54 679
e 54 680
e 54 1322
e 54 1324
e 54 1342
e 54 1344
e 54 1491
e 54 1492
e 54 987
e 54 988
e 54 607
e 54 608
e 54 866
e 54 868
e 54 362
e 54 364
e 54 1398
e 54 1399
e 54 255
e 54 256
e 55 1185
e 55 1187
e 55 441
e 55 549
e 55 550
e 55 1069
e 55 1070
e 55 945
e 55 946
e 55 825
e 55 826
e 55 443
e 55 1093
e 55 1095
e 55 953
e 55 955
e 55 1377
e 55 1378
e 55 1125
e 55 1126
e 55 1269
e 55 1270
e 55 1149
e 55 1150
e 56 1186
e 56 1188
e 56 551
e 56 552
e 56 1071
e 56 1072
e 56 947
e 56 948
e 56 954
e 56 827
e 56 828
e 56 1094
e 56 1096
e 56 1380
e 56 442
e 56 1379
e 56 956
e 56 1127
e 56 1128
e 56 1271
e 56 1272
e 56 444
e 56 1151
e 56 1152
e 57 225
e 57 227
e 57 293
e 57 294
e 57 1325
e 57 486
e 57 877
e 57 878
e 57 1328
e 57 369
e 57 370
e 57 1062
e 57 602
e 57 601
e 57 485
e 57 349
e 57 1061
e 57 352
e 58 226
e 58 228
e 58 487
e 58 295
e 58 296
e 58 1063
e 58 488
e 58 1326
e 58 879
e 58 880
e 58 371
e 58 372
e 58 1327
e 58 1064
e 58 603
e 58 604
e 58 350
e 58 351
e 59 353
e 59 385
e 59 1283
e 59 356
e 59 965
e 59 967
e 59 297
e 59 299
e 59 1281
e 59 1193
e 59 388
e 59 533
e 59 886
e 59 535
e 59 885
e 59 1213
e 59 1195
e 59 1215
e 60 386
e 60 355
e 60 1196
e 60 966
e 60 354
e 60 1284
e 60 298
e 60 300
e 60 1282
e 60 387
e 60 968
e 60 888
e 60 534
e 60 887
e 60 536
e 60 1194
e 60 1214
e 60 1216
e 61 969
e 61 970
e 61 1509
e 61 1510
e 62 971
e 62 972
e 62 1511
e 62 1512
e 63 1433
e 63 325
e 63 1158
e 63 327
e 63 1349
e 63 1497
e 63 1169
e 63 1170
e 63 1429
e 63 1431
e 63 1498
e 63 345
e 63 1157
e 63 347
e 63 317
e 63 318
e 63 1435
e 63 1350
e 64 1434
e 64 1352
e 64 1436
e 64 1351
e 64 326
e 64 1159
e 64 328
e 64 1160
e 64 1171
e 64 1172
e 64 1430
e 64 1432
e 64 1500
e 64 346
e 64 1499
e 64 348
e 64 319
e 64 320
e 65 493
e 65 494
e 65 657
e 65 787
e 65 925
e 65 926
e 65 1317
e 65 1318
e 65 561
e 65 562
e 65 821
e 65 822
e 65 659
e 65 1085
e 65 574
e 65 1087
e 65 1089
e 65 1091
e 65 729
e 65 731
e 65 785
e 65 573
e 65 365
e 65 366
e 65 625
e 65 626
e 66 786
e 66 660
e 66 367
e 66 368
e 66 927
e 66 928
e 66 1319
e 66 1320
e 66 563
e 66 564
e 66 823
e 66 824
e 66 1086
e 66 575
e 66 1088
e 66 1090
e 66 1092
e 66 788
e 66 730
e 66 732
e 66 658
e 66 495
e 66 496
e 66 627
e 66 628
e 66 576
e 67 773
e 67 775
e 67 1161
e 67 1164
e 67 529
e 67 531
e 67 733
e 67 734
e 67 581
e 67 583
e 67 1369
e 67 1371
e 67 861
e 67 862
e 67 993
e 67 994
e 67 1381
e 67 1382
e 67 1009
e 67 1010
e 67 373
e 67 374
e 68 774
e 68 776
e 68 1162
e 68 1163
e 68 530
e 68 532
e 68 735
e 68 736
e 68 582
e 68 584
e 68 1370
e 68 1372
e 68 863
e 68 864
e 68 995
e 68 996
e 68 1383
e 68 1384
e 68 1011
e 68 1012
e 68 375
e 68 376
e 69 897
e 69 898
e 69 1413
e 69 1414
e 69 685
e 69 417
e 69 419
e 69 941
e 69 686
e 69 943
e 69 1073
e 69 1074
e 69 965
e 69 968
e 69 1101
e 69 1103
e 69 721
e 69 722
e 69 1365
e 69 1367
e 69 1125
e 69 861
e 69 863
e 69 997
e 69 1127
e 69 999
e 69 1401
e 69 1403
e 69 253
e 69 255
e 70 899
e 70 900
e 70 1415
e 70 1416
e 70 688
e 70 418
e 70 420
e 70 942
e 70 687
e 70 944
e 70 1075
e 70 1076
e 70 966
e 70 967
e 70 1102
e 70 1104
e 70 723
e 70 724
e 70 1366
e 70 1368
e 70 862
e 70 864
e 70 998
e 70 1000
e 70 1128
e 70 1126
e 70 1402
e 70 1404
e 70 254
e 70 256
e 71 393
e 71 394
e 71 289
e 71 291
e 71 685
e 71 687
e 71 1097
e 71 1099
e 71 1145
e 71 341
e 71 342
e 71 1241
e 71 1242
e 71 357
e 71 359
e 71 381
e 71 761
e 71 1146
e 71 763
e 71 637
e 71 638
e 71 383
e 72 395
e 72 396
e 72 290
e 72 292
e 72 686
e 72 688
e 72 1098
e 72 1100
e 72 343
e 72 344
e 72 1243
e 72 1244
e 72 1148
e 72 358
e 72 360
e 72 384
e 72 762
e 72 1147
e 72 764
e 72 382
e 72 639
e 72 640
e 73 1153
e 73 1154
e 73 649
e 73 650
e 73 793
e 73 794
e 73 549
e 73 551
e 73 561
e 73 563
e 73 449
e 73 450
e 73 837
e 73 838
e 73 1113
e 73 1116
e 73 741
e 73 743
e 73 365
e 73 367
e 73 241
e 73 242
e 74 1155
e 74 1156
e 74 651
e 74 652
e 74 795
e 74 796
e 74 550
e 74 552
e 74 562
e 74 564
e 74 451
e 74 452
e 74 839
e 74 840
e 74 1114
e 74 1115
e 74 742
e 74 744
e 74 366
e 74 368
e 74 243
e 74 244
e 75 1377
e 75 1379
e 75 893
e 75 975
e 75 877
e 75 1131
e 75 1407
e 75 461
e 75 1331
e 75 879
e 75 1329
e 75 1129
e 75 973
e 75 463
e 75 1405
e 75 317
e 75 894
e 75 319
e 76 1378
e 76 896
e 76 976
e 76 878
e 76 1130
e 76 974
e 76 1132
e 76 462
e 76 880
e 76 1330
e 76 1332
e 76 1406
e 76 1380
e 76 464
e 76 1408
e 76 318
e 76 895
e 76 320
e 77 581
e 77 584
e 77 1053
e 77 881
e 77 882
e 77 437
e 77 438
e 77 1303
e 77 857
e 77 1301
e 77 859
e 77 541
e 77 1054
e 77 543
e 78 582
e 78 583
e 78 1056
e 78 1304
e 78 883
e 78 884
e 78 1302
e 78 439
e 78 440
e 78 858
e 78 860
e 78 542
e 78 1055
e 78 544
e 79 677
e 79 231
e 79 679
e 79 873
e 79 874
e 79 1355
e 79 813
e 79 814
e 79 1353
e 79 981
e 79 982
e 79 1401
e 79 229
e 79 1404
e 80 876
e 80 678
e 80 680
e 80 1354
e 80 875
e 80 232
e 80 815
e 80 816
e 80 983
e 80 984
e 80 1402
e 80 1356
e 80 1403
e 80 230
e 81 1537
e 81 1538
e 81 1445
e 81 1447
e 81 573
e 81 889
e 81 890
e 81 1437
e 81 1438
e 81 575
e 82 1539
e 82 1540
e 82 1446
e 82 1448
e 82 576
e 82 891
e 82 892
e 82 574
e 82 1439
e 82 1440
e 83 289
e 83 1217
e 83 292
e 83 613
e 83 614
e 83 1218
e 83 1373
e 83 749
e 83 750
e 83 757
e 83 760
e 83 825
e 83 933
e 83 827
e 83 413
e 83 414
e 83 1375
e 83 934
e 84 290
e 84 291
e 84 1220
e 84 935
e 84 615
e 84 616
e 84 936
e 84 1219
e 84 751
e 84 752
e 84 1376
e 84 758
e 84 759
e 84 826
e 84 828
e 84 1374
e 84 415
e 84 416
e 85 1517
e 85 1518
e 85 1297
e 85 1299
e 85 1181
e 85 1182
e 86 1519
e 86 1520
e 86 1298
e 86 1300
e 86 1183
e 86 1184
e 87 1189
e 87 1529
e 87 1191
e 87 825
e 87 789
e 87 790
e 87 601
e 87 603
e 87 828
e 87 1531
e 88 1530
e 88 1190
e 88 1192
e 88 792
e 88 791
e 88 826
e 88 602
e 88 827
e 88 604
e 88 1532
e 89 801
e 89 1105
e 89 803
e 89 1033
e 89 1035
e 89 397
e 89 399
e 89 593
e 89 1106
e 89 596
e 89 1237
e 89 1238
e 89 505
e 89 506
e 89 221
e 89 222
e 90 802
e 90 804
e 90 1107
e 90 1034
e 90 1036
e 90 398
e 90 400
e 90 594
e 90 595
e 90 1108
e 90 1239
e 90 1240
e 90 507
e 90 508
e 90 223
e 90 224
e 91 801
e 91 1105
e 91 804
e 91 805
e 91 806
e 91 1506
e 91 1425
e 91 1427
e 91 529
e 91 1017
e 91 1107
e 91 532
e 91 277
e 91 1505
e 91 279
e 91 857
e 91 1019
e 91 860
e 91 1213
e 91 1216
e 92 1106
e 92 802
e 92 803
e 92 1508
e 92 807
e 92 808
e 92 1108
e 92 1507
e 92 1426
e 92 530
e 92 531
e 92 1018
e 92 1428
e 92 278
e 92 280
e 92 858
e 92 859
e 92 1020
e 92 1214
e 92 1215
e 93 449
e 93 1217
e 93 451
e 93 1023
e 93 1353
e 93 1021
e 93 1356
e 93 813
e 93 1219
e 93 815
e 93 689
e 93 691
e 93 661
e 93 662
e 93 797
e 93 799
e 94 450
e 94 452
e 94 1220
e 94 1218
e 94 1354
e 94 1355
e 94 1022
e 94 814
e 94 816
e 94 690
e 94 692
e 94 663
e 94 664
e 94 1024
e 94 798
e 94 800
e 95 1025
e 95 817
e 95 1027
e 95 1188
e 95 1185
e 95 625
e 95 818
e 95 627
e 95 725
e 95 726
e 95 1049
e 95 1050
e 95 541
e 95 544
e 96 1026
e 96 1187
e 96 1028
e 96 1186
e 96 626
e 96 819
e 96 628
e 96 727
e 96 728
e 96 820
e 96 1051
e 96 1052
e 96 542
e 96 543
e 97 609
e 97 611
e 97 549
e 97 1415
e 97 552
e 97 1289
e 97 1290
e 97 1413
e 97 1525
e 97 789
e 97 1014
e 97 791
e 97 1013
e 97 1526
e 98 610
e 98 612
e 98 550
e 98 551
e 98 1416
e 98 1527
e 98 1291
e 98 1016
e 98 790
e 98 1015
e 98 792
e 98 1292
e 98 1528
e 98 1414
e 99 1249
e 99 1250
e 99 453
e 99 454
e 99 903
e 99 521
e 99 522
e 99 1485
e 99 1487
e 99 305
e 99 745
e 99 307
e 99 746
e 99 953
e 99 901
e 99 956
e 99 1341
e 99 1344
e 100 1251
e 100 748
e 100 902
e 100 455
e 100 456
e 100 523
e 100 524
e 100 1486
e 100 1342
e 100 1252
e 100 306
e 100 308
e 100 904
e 100 954
e 100 955
e 100 1488
e 100 747
e 100 1343
e 101 1293
e 101 1294
e 101 537
e 101 539
e 101 925
e 101 927
e 101 945
e 101 947
e 101 1465
e 101 1467
e 101 701
e 101 702
e 101 1477
e 101 1478
e 101 969
e 101 971
e 101 1117
e 101 1118
e 101 1381
e 101 1383
e 101 1393
e 101 1395
e 101 893
e 101 895
e 102 1295
e 102 1296
e 102 538
e 102 540
e 102 926
e 102 928
e 102 946
e 102 948
e 102 1466
e 102 1468
e 102 703
e 102 704
e 102 1479
e 102 1480
e 102 970
e 102 972
e 102 1119
e 102 1120
e 102 1382
e 102 1384
e 102 1394
e 102 1396
e 102 894
e 102 896
e 103 1133
e 103 1390
e 103 1297
e 103 1300
e 103 1181
e 103 1183
e 103 829
e 103 831
e 103 461
e 103 464
e 103 1361
e 103 1363
e 103 1389
e 103 481
e 103 482
e 103 873
e 103 875
e 103 365
e 103 1134
e 103 368
e 103 1009
e 103 1011
e 103 505
e 103 507
e 104 1298
e 104 1299
e 104 367
e 104 1391
e 104 1392
e 104 1182
e 104 1184
e 104 830
e 104 832
e 104 462
e 104 463
e 104 1362
e 104 1364
e 104 483
e 104 484
e 104 874
e 104 876
e 104 366
e 104 1135
e 104 1136
e 104 1010
e 104 1012
e 104 506
e 104 508
e 105 929
e 105 930
e 105 1411
e 105 1220
e 105 837
e 105 839
e 105 457
e 105 458
e 105 651
e 105 1100
e 105 1217
e 105 1278
e 105 649
e 105 1409
e 105 821
e 105 1277
e 105 823
e 105 1097
e 105 1245
e 105 1246
e 106 1218
e 106 931
e 106 652
e 106 838
e 106 840
e 106 650
e 106 459
e 106 460
e 106 1412
e 106 1219
e 106 1410
e 106 1279
e 106 932
e 106 822
e 106 1098
e 106 824
e 106 1280
e 106 1099
e 106 1247
e 106 1248
e 107 737
e 107 739
e 107 261
e 107 262
e 107 1223
e 107 617
e 107 618
e 107 369
e 107 371
e 107 1221
e 107 413
e 107 415
e 108 738
e 108 740
e 108 1222
e 108 263
e 108 264
e 108 619
e 108 620
e 108 370
e 108 372
e 108 414
e 108 1224
e 108 416
e 109 673
e 109 674
e 109 261
e 109 263
e 109 525
e 109 526
e 109 273
e 109 274
e 109 341
e 109 1046
e 109 343
e 109 1045
e 109 1053
e 109 1055
e 110 675
e 110 676
e 110 262
e 110 264
e 110 1048
e 110 527
e 110 528
e 110 275
e 110 276
e 110 342
e 110 1047
e 110 344
e 110 1054
e 110 1056
e 111 1029
e 111 1031
e 111 1189
e 111 1192
e 111 1201
e 111 1203
e 111 1205
e 111 1207
e 111 1336
e 111 1333
e 111 1469
e 111 1471
e 111 481
e 111 845
e 111 847
e 111 721
e 111 723
e 111 221
e 111 223
e 111 225
e 111 483
e 111 228
e 111 629
e 111 631
e 111 1021
e 111 1024
e 112 1030
e 112 1032
e 112 1190
e 112 1191
e 112 1202
e 112 1204
e 112 1206
e 112 1335
e 112 1208
e 112 1470
e 112 1334
e 112 482
e 112 846
e 112 848
e 112 722
e 112 724
e 112 222
e 112 224
e 112 226
e 112 227
e 112 484
e 112 630
e 112 632
e 112 1472
e 112 1022
e 112 1023
e 113 1153
e 113 1155
e 113 325
e 113 1063
e 113 328
e 113 329
e 113 330
e 113 557
e 113 558
e 113 1073
e 113 1513
e 113 1075
e 113 1514
e 113 1061
e 114 1154
e 114 1156
e 114 326
e 114 327
e 114 1064
e 114 331
e 114 332
e 114 559
e 114 560
e 114 1074
e 114 1516
e 114 1076
e 114 1515
e 114 1062
e 115 897
e 115 1361
e 115 899
e 115 613
e 115 615
e 115 733
e 115 977
e 115 979
e 115 1364
e 115 1173
e 115 735
e 115 1239
e 115 601
e 115 1237
e 115 604
e 115 285
e 115 287
e 115 1174
e 116 898
e 116 900
e 116 614
e 116 616
e 116 1240
e 116 1362
e 116 734
e 116 978
e 116 1363
e 116 980
e 116 1238
e 116 1175
e 116 1176
e 116 602
e 116 603
e 116 736
e 116 286
e 116 288
e 117 961
e 117 962
e 117 1539
e 117 485
e 117 1015
e 117 487
e 117 713
e 117 714
e 117 1495
e 117 1069
e 117 1071
e 117 1537
e 117 725
e 117 727
e 117 1493
e 117 1013
e 117 605
e 117 607
e 118 1538
e 118 963
e 118 964
e 118 486
e 118 1496
e 118 488
e 118 715
e 118 716
e 118 1070
e 118 1072
e 118 1540
e 118 1016
e 118 726
e 118 728
e 118 1494
e 118 1014
e 118 606
e 118 608
e 119 1057
e 119 1059
e 119 1453
e 119 1056
e 119 1053
e 119 685
e 119 1295
e 119 688
e 119 565
e 119 566
e 119 1293
e 119 1455
e 119 309
e 119 384
e 119 381
e 119 310
e 120 1058
e 120 1060
e 120 311
e 120 312
e 120 686
e 120 687
e 120 1054
e 120 1294
e 120 1055
e 120 567
e 120 568
e 120 1456
e 120 1454
e 120 1296
e 120 382
e 120 383
e 121 453
e 121 1351
e 121 455
e 121 1349
e 121 1405
e 121 1241
e 121 661
e 121 663
e 121 728
e 121 1177
e 121 725
e 121 1178
e 121 669
e 121 1243
e 121 671
e 121 1408
e 122 1244
e 122 454
e 122 1350
e 122 456
e 122 1352
e 122 1406
e 122 726
e 122 662
e 122 727
e 122 664
e 122 1242
e 122 1179
e 122 1180
e 122 670
e 122 1407
e 122 672
e 123 425
e 123 1261
e 123 811
e 123 428
e 123 1165
e 123 1166
e 123 1263
e 123 1169
e 123 809
e 123 1171
e 123 937
e 123 597
e 123 599
e 123 939
e 124 940
e 124 1172
e 124 1170
e 124 426
e 124 427
e 124 812
e 124 1262
e 124 1167
e 124 1168
e 124 938
e 124 600
e 124 598
e 124 810
e 124 1264
e 125 897
e 125 900
e 125 265
e 125 266
e 125 629
e 125 632
e 125 697
e 125 699
e 125 413
e 125 416
e 126 898
e 126 899
e 126 267
e 126 268
e 126 630
e 126 631
e 126 698
e 126 700
e 126 414
e 126 415
e 127 641
e 127 642
e 127 772
e 127 1413
e 127 1416
e 127 525
e 127 527
e 127 769
e 127 1065
e 127 1067
e 127 701
e 127 703
e 127 585
e 127 1421
e 127 587
e 127 1423
e 127 1497
e 127 1499
e 127 993
e 127 995
e 127 493
e 127 495
e 127 1525
e 127 1527
e 128 770
e 128 643
e 128 644
e 128 1414
e 128 1415
e 128 526
e 128 528
e 128 1500
e 128 1066
e 128 1068
e 128 702
e 128 704
e 128 586
e 128 588
e 128 1422
e 128 1498
e 128 771
e 128 1424
e 128 994
e 128 996
e 128 494
e 128 496
e 128 1526
e 128 1528
e 129 545
e 129 546
e 129 945
e 129 280
e 129 913
e 129 914
e 129 948
e 129 277
e 129 600
e 129 597
e 129 1437
e 129 1439
e 130 547
e 130 548
e 130 279
e 130 947
e 130 946
e 130 915
e 130 916
e 130 278
e 130 599
e 130 1440
e 130 1438
e 130 598
e 131 321
e 131 322
e 131 1065
e 131 1068
e 131 301
e 131 304
e 131 817
e 131 819
e 131 765
e 131 768
e 132 323
e 132 324
e 132 1066
e 132 1067
e 132 302
e 132 303
e 132 818
e 132 820
e 132 766
e 132 767
e 133 961
e 133 1473
e 133 963
e 133 453
e 133 456
e 133 1289
e 133 1291
e 133 1241
e 133 497
e 133 498
e 133 1474
e 133 921
e 133 923
e 133 1244
e 133 253
e 133 256
e 134 962
e 134 1475
e 134 964
e 134 454
e 134 455
e 134 1290
e 134 1292
e 134 1476
e 134 499
e 134 500
e 134 1242
e 134 922
e 134 1243
e 134 924
e 134 254
e 134 255
e 135 1417
e 135 1418
e 135 497
e 135 1449
e 135 1450
e 135 693
e 135 951
e 135 949
e 135 695
e 135 1233
e 135 1235
e 135 1373
e 135 1376
e 135 745
e 135 747
e 135 1137
e 135 499
e 135 1140
e 135 1269
e 135 1271
e 135 1529
e 135 1532
e 136 1419
e 136 1420
e 136 498
e 136 1451
e 136 1452
e 136 694
e 136 952
e 136 950
e 136 696
e 136 1234
e 136 1236
e 136 1374
e 136 1375
e 136 746
e 136 748
e 136 1138
e 136 1139
e 136 500
e 136 1270
e 136 1272
e 136 1530
e 136 1531
e 137 641
e 137 643
e 137 709
e 137 710
e 137 781
e 137 783
e 137 1177
e 137 437
e 137 439
e 137 921
e 137 869
e 137 1179
e 137 924
e 137 870
e 138 642
e 138 644
e 138 871
e 138 711
e 138 712
e 138 872
e 138 782
e 138 784
e 138 438
e 138 440
e 138 1178
e 138 922
e 138 923
e 138 1180
e 139 1029
e 139 1032
e 139 265
e 139 267
e 139 417
e 139 420
e 139 429
e 139 431
e 139 565
e 139 567
e 139 569
e 139 1461
e 139 571
e 139 445
e 139 447
e 139 1463
e 139 841
e 139 843
e 139 1121
e 139 1122
e 139 881
e 139 883
e 139 249
e 139 252
e 139 1149
e 139 1151
e 140 1030
e 140 1031
e 140 266
e 140 268
e 140 418
e 140 419
e 140 1464
e 140 430
e 140 432
e 140 566
e 140 568
e 140 570
e 140 572
e 140 446
e 140 448
e 140 842
e 140 844
e 140 1123
e 140 1124
e 140 1462
e 140 882
e 140 884
e 140 250
e 140 251
e 140 1150
e 140 1152
e 141 1153
e 141 1156
e 141 1157
e 141 1287
e 141 1289
e 141 1292
e 141 913
e 141 915
e 141 1285
e 141 1159
e 141 957
e 141 958
e 141 321
e 141 323
e 141 585
e 141 588
e 141 849
e 141 850
e 141 1117
e 141 1119
e 141 1381
e 141 1384
e 141 1273
e 141 1275
e 141 637
e 141 639
e 142 1154
e 142 1155
e 142 1286
e 142 1288
e 142 1290
e 142 1291
e 142 914
e 142 916
e 142 1158
e 142 1160
e 142 959
e 142 960
e 142 322
e 142 324
e 142 586
e 142 587
e 142 851
e 142 852
e 142 1118
e 142 1120
e 142 1382
e 142 1383
e 142 1274
e 142 1276
e 142 638
e 142 640
e 143 513
e 143 577
e 143 515
e 143 709
e 143 711
e 143 1417
e 143 1419
e 143 579
e 143 1489
e 143 1491
e 143 437
e 143 1078
e 143 440
e 143 1077
e 144 514
e 144 580
e 144 710
e 144 578
e 144 1418
e 144 712
e 144 1492
e 144 1490
e 144 516
e 144 438
e 144 439
e 144 1080
e 144 1079
e 144 1420
e 145 705
e 145 1441
e 145 708
e 145 357
e 145 360
e 145 393
e 145 395
e 145 1448
e 145 657
e 145 1442
e 145 660
e 145 761
e 145 1445
e 145 764
e 145 797
e 145 800
e 146 706
e 146 707
e 146 1444
e 146 358
e 146 359
e 146 1447
e 146 394
e 146 396
e 146 1443
e 146 658
e 146 659
e 146 762
e 146 763
e 146 798
e 146 799
e 146 1446
e 147 545
e 147 547
e 147 681
e 147 906
e 147 683
e 147 557
e 147 559
e 147 1009
e 147 905
e 147 1012
e 147 565
e 147 919
e 147 568
e 147 917
e 147 221
e 147 224
e 148 546
e 148 548
e 148 682
e 148 907
e 148 684
e 148 908
e 148 558
e 148 560
e 148 1010
e 148 1011
e 148 566
e 148 567
e 148 920
e 148 222
e 148 223
e 148 918
e 149 517
e 149 519
e 149 909
e 149 912
e 149 273
e 149 275
e 149 805
e 149 807
e 149 1064
e 149 941
e 149 944
e 149 577
e 149 580
e 149 1481
e 149 1485
e 149 1483
e 149 717
e 149 719
e 149 1488
e 149 1061
e 149 885
e 149 887
e 149 509
e 149 511
e 150 518
e 150 520
e 150 910
e 150 911
e 150 274
e 150 276
e 150 1062
e 150 1063
e 150 808
e 150 942
e 150 943
e 150 1486
e 150 578
e 150 579
e 150 1482
e 150 1484
e 150 718
e 150 1487
e 150 720
e 150 806
e 150 886
e 150 888
e 150 510
e 150 512
e 151 513
e 151 1233
e 151 516
e 151 1236
e 151 1389
e 151 1391
e 151 561
e 151 1540
e 151 564
e 151 1537
e 151 1117
e 151 1120
e 152 514
e 152 515
e 152 1234
e 152 1235
e 152 1390
e 152 562
e 152 563
e 152 1538
e 152 1392
e 152 1539
e 152 1118
e 152 1119
e 153 809
e 153 1501
e 153 1515
e 153 812
e 153 1513
e 153 373
e 153 375
e 153 313
e 153 315
e 153 1309
e 153 1311
e 153 1504
e 154 1514
e 154 810
e 154 811
e 154 1516
e 154 1502
e 154 374
e 154 376
e 154 314
e 154 316
e 154 1310
e 154 1503
e 154 1312
e 155 545
e 155 548
e 155 1253
e 155 1255
e 155 1417
e 155 1229
e 155 1016
e 155 1133
e 155 1230
e 155 1135
e 155 721
e 155 724
e 155 885
e 155 1079
e 155 888
e 155 345
e 155 1013
e 155 348
e 155 1420
e 155 1077
e 156 546
e 156 547
e 156 1254
e 156 1015
e 156 1256
e 156 1418
e 156 1419
e 156 1134
e 156 1231
e 156 1136
e 156 722
e 156 723
e 156 886
e 156 887
e 156 1080
e 156 346
e 156 347
e 156 1232
e 156 1078
e 156 1014
e 157 1449
e 157 485
e 157 871
e 157 295
e 157 488
e 157 457
e 157 459
e 157 1389
e 157 1392
e 157 1209
e 157 1497
e 157 981
e 157 983
e 157 1500
e 157 505
e 157 293
e 157 1211
e 157 508
e 157 1451
e 157 869
e 158 1450
e 158 1498
e 158 1452
e 158 486
e 158 487
e 158 296
e 158 458
e 158 460
e 158 1390
e 158 1391
e 158 872
e 158 982
e 158 984
e 158 870
e 158 506
e 158 507
e 158 1212
e 158 1210
e 158 1499
e 158 294
e 159 257
e 159 260
e 159 393
e 159 396
e 159 401
e 159 402
e 159 1173
e 159 1175
e 159 793
e 159 795
e 159 677
e 159 680
e 159 1205
e 159 1208
e 159 1337
e 159 1340
e 159 1365
e 159 1368
e 159 617
e 159 1533
e 159 619
e 159 637
e 159 1534
e 159 640
e 160 258
e 160 259
e 160 394
e 160 395
e 160 403
e 160 404
e 160 1174
e 160 1176
e 160 794
e 160 796
e 160 678
e 160 679
e 160 1206
e 160 1207
e 160 1338
e 160 1339
e 160 1366
e 160 1367
e 160 618
e 160 620
e 160 1535
e 160 638
e 160 639
e 160 1536
e 161 877
e 161 269
e 161 271
e 161 528
e 161 533
e 161 536
e 161 1085
e 161 1088
e 161 1477
e 161 1479
e 161 1293
e 161 1005
e 161 1296
e 161 233
e 161 234
e 161 1387
e 161 621
e 161 1006
e 161 623
e 161 880
e 161 1385
e 161 245
e 161 248
e 161 525
e 162 236
e 162 270
e 162 527
e 162 878
e 162 879
e 162 535
e 162 624
e 162 526
e 162 1086
e 162 1087
e 162 1478
e 162 1480
e 162 1294
e 162 1295
e 162 272
e 162 1386
e 162 235
e 162 1388
e 162 622
e 162 1007
e 162 1008
e 162 246
e 162 247
e 162 534
e 163 521
e 163 523
e 163 269
e 163 272
e 163 405
e 163 407
e 163 1313
e 163 1315
e 163 1453
e 163 1456
e 163 949
e 163 952
e 163 329
e 163 331
e 163 465
e 163 466
e 163 1109
e 163 1111
e 163 1257
e 163 1258
e 163 1017
e 163 1020
e 164 522
e 164 524
e 164 270
e 164 271
e 164 406
e 164 408
e 164 1314
e 164 1316
e 164 1454
e 164 1455
e 164 950
e 164 951
e 164 330
e 164 332
e 164 467
e 164 468
e 164 1110
e 164 1112
e 164 1259
e 164 1260
e 164 1018
e 164 1019
e 165 1281
e 165 1284
e 165 645
e 165 648
e 165 905
e 165 907
e 165 653
e 165 656
e 165 1313
e 165 1316
e 165 817
e 165 820
e 165 821
e 165 824
e 165 573
e 165 576
e 165 985
e 165 987
e 165 1521
e 165 1522
e 165 1269
e 165 1272
e 165 1277
e 165 1279
e 166 1282
e 166 1283
e 166 646
e 166 647
e 166 906
e 166 908
e 166 654
e 166 655
e 166 1314
e 166 1315
e 166 818
e 166 819
e 166 822
e 166 823
e 166 574
e 166 575
e 166 986
e 166 988
e 166 1523
e 166 1524
e 166 1270
e 166 1271
e 166 1278
e 166 1280
e 167 321
e 167 1173
e 167 324
e 167 1306
e 167 1181
e 167 344
e 167 1176
e 167 1305
e 167 405
e 167 408
e 167 729
e 167 341
e 167 732
e 167 477
e 167 479
e 167 1184
e 168 1174
e 168 322
e 168 323
e 168 1308
e 168 1307
e 168 343
e 168 1183
e 168 1182
e 168 342
e 168 407
e 168 730
e 168 731
e 168 480
e 168 478
e 168 1175
e 168 406
e 169 673
e 169 865
e 169 675
e 169 868
e 169 709
e 169 1319
e 169 712
e 169 617
e 169 620
e 169 1475
e 169 1145
e 169 1473
e 169 889
e 169 1317
e 169 891
e 169 829
e 169 1147
e 169 832
e 170 674
e 170 867
e 170 676
e 170 710
e 170 711
e 170 866
e 170 618
e 170 619
e 170 1320
e 170 1476
e 170 1474
e 170 1148
e 170 1146
e 170 890
e 170 892
e 170 830
e 170 831
e 170 1318
e 171 1025
e 171 1028
e 171 1093
e 171 1096
e 171 649
e 171 845
e 171 652
e 171 621
e 171 1388
e 171 624
e 171 241
e 171 1385
e 171 243
e 171 917
e 171 920
e 171 848
e 172 1026
e 172 1027
e 172 1094
e 172 1095
e 172 650
e 172 651
e 172 622
e 172 623
e 172 846
e 172 242
e 172 244
e 172 847
e 172 919
e 172 1386
e 172 1387
e 172 918
e 173 449
e 173 1249
e 173 1251
e 173 452
e 173 1332
e 173 1348
e 173 1329
e 173 1201
e 173 1345
e 173 1204
e 173 693
e 173 470
e 173 696
e 173 1465
e 173 469
e 173 1468
e 173 1437
e 173 1440
e 174 450
e 174 451
e 174 1252
e 174 471
e 174 1250
e 174 1331
e 174 1347
e 174 1330
e 174 1346
e 174 1202
e 174 1203
e 174 694
e 174 695
e 174 472
e 174 1466
e 174 1467
e 174 1438
e 174 1439
e 175 929
e 175 881
e 175 931
e 175 1324
e 175 977
e 175 361
e 175 364
e 175 401
e 175 1321
e 175 403
e 175 884
e 175 469
e 175 471
e 175 317
e 175 980
e 175 320
e 176 1322
e 176 930
e 176 978
e 176 932
e 176 882
e 176 362
e 176 363
e 176 979
e 176 402
e 176 883
e 176 404
e 176 470
e 176 472
e 176 1323
e 176 318
e 176 319
e 177 1409
e 177 1169
e 177 1412
e 177 773
e 177 776
e 177 297
e 177 1149
e 177 300
e 177 1265
e 177 753
e 177 1266
e 177 755
e 177 1172
e 177 793
e 177 1152
e 177 796
e 177 477
e 177 480
e 178 1410
e 178 1411
e 178 1268
e 178 774
e 178 775
e 178 1170
e 178 298
e 178 299
e 178 1267
e 178 1150
e 178 754
e 178 1171
e 178 756
e 178 1151
e 178 794
e 178 795
e 178 478
e 178 479
e 179 1033
e 179 1036
e 179 273
e 179 409
e 179 276
e 179 789
e 179 792
e 179 665
e 179 667
e 179 411
e 179 553
e 179 555
e 179 689
e 179 692
e 179 1473
e 179 1476
e 179 1229
e 179 1231
e 179 1105
e 179 1108
e 179 233
e 179 235
e 179 1132
e 179 753
e 179 1129
e 179 756
e 180 1034
e 180 1035
e 180 274
e 180 275
e 180 790
e 180 791
e 180 410
e 180 666
e 180 668
e 180 412
e 180 554
e 180 556
e 180 690
e 180 691
e 180 1474
e 180 1475
e 180 1230
e 180 1232
e 180 1106
e 180 1107
e 180 234
e 180 1131
e 180 236
e 180 754
e 180 755
e 180 1130
e 181 781
e 181 784
e 181 1441
e 181 1443
e 181 989
e 181 608
e 181 445
e 181 959
e 181 448
e 181 1221
e 181 1224
e 181 1357
e 181 1359
e 181 1493
e 181 1496
e 181 605
e 181 992
e 181 1249
e 181 1252
e 181 229
e 181 232
e 181 957
e 181 749
e 181 751
e 181 625
e 181 628
e 182 782
e 182 783
e 182 752
e 182 1442
e 182 1444
e 182 606
e 182 607
e 182 958
e 182 447
e 182 960
e 182 1222
e 182 1223
e 182 1358
e 182 1360
e 182 1494
e 182 1495
e 182 990
e 182 991
e 182 1250
e 182 1251
e 182 230
e 182 231
e 182 750
e 182 446
e 182 626
e 182 627
e 183 901
e 183 904
e 183 841
e 183 925
e 183 844
e 183 1069
e 183 1519
e 183 1072
e 183 1393
e 183 665
e 183 1396
e 183 928
e 183 281
e 183 283
e 183 668
e 183 285
e 183 1517
e 183 288
e 184 902
e 184 903
e 184 1518
e 184 842
e 184 843
e 184 1070
e 184 1071
e 184 926
e 184 1394
e 184 1395
e 184 1520
e 184 927
e 184 666
e 184 282
e 184 667
e 184 284
e 184 286
e 184 287
e 185 1421
e 185 1424
e 185 474
e 185 1197
e 185 1200
e 185 1128
e 185 869
e 185 961
e 185 964
e 185 465
e 185 467
e 185 1237
e 185 1240
e 185 473
e 185 1125
e 185 993
e 185 996
e 185 613
e 185 616
e 185 872
e 185 369
e 185 372
e 186 615
e 186 1423
e 186 871
e 186 1198
e 186 1199
e 186 962
e 186 963
e 186 1422
e 186 466
e 186 468
e 186 1238
e 186 1239
e 186 475
e 186 476
e 186 1126
e 186 994
e 186 995
e 186 614
e 186 1127
e 186 370
e 186 371
e 186 870
e 187 1505
e 187 1507
e 187 1225
e 187 1245
e 187 1227
e 187 1516
e 187 1265
e 187 1513
e 187 1267
e 187 1109
e 187 1535
e 187 1047
e 187 1112
e 187 1045
e 187 509
e 187 1533
e 187 1247
e 187 512
e 188 1536
e 188 1506
e 188 1508
e 188 1226
e 188 1515
e 188 1228
e 188 1514
e 188 1534
e 188 1246
e 188 1266
e 188 1268
e 188 1110
e 188 1111
e 188 1048
e 188 1248
e 188 510
e 188 511
e 188 1046
e 189 833
e 189 849
e 189 835
e 189 929
e 189 293
e 189 1441
e 189 296
e 189 457
e 189 460
e 189 1444
e 189 305
e 189 1305
e 189 851
e 189 308
e 189 1307
e 189 377
e 189 379
e 189 932
e 190 834
e 190 931
e 190 836
e 190 294
e 190 295
e 190 850
e 190 458
e 190 459
e 190 1443
e 190 306
e 190 307
e 190 852
e 190 1442
e 190 1306
e 190 1308
e 190 378
e 190 380
e 190 930
e 191 557
e 191 237
e 191 239
e 191 560
e 191 469
e 191 1536
e 191 472
e 191 1433
e 191 1436
e 191 733
e 191 1533
e 191 736
e 192 1534
e 192 558
e 192 559
e 192 238
e 192 470
e 192 471
e 192 1434
e 192 1435
e 192 240
e 192 734
e 192 735
e 192 1535
e 193 236
e 193 1045
e 193 1048
e 193 1049
e 193 1051
e 193 1521
e 193 553
e 193 556
e 193 957
e 193 960
e 193 1089
e 193 1092
e 193 1481
e 193 1484
e 193 1101
e 193 1104
e 193 465
e 193 468
e 193 1121
e 193 1123
e 193 233
e 193 492
e 193 241
e 193 489
e 193 1523
e 193 244
e 194 1046
e 194 1047
e 194 1050
e 194 1052
e 194 1522
e 194 554
e 194 555
e 194 958
e 194 959
e 194 1090
e 194 1091
e 194 1482
e 194 1483
e 194 1102
e 194 1103
e 194 466
e 194 467
e 194 1122
e 194 1124
e 194 234
e 194 235
e 194 242
e 194 243
e 194 1524
e 194 490
e 194 491
e 195 1057
e 195 908
e 195 1317
e 195 1320
e 195 681
e 195 1165
e 195 1003
e 195 684
e 195 397
e 195 1167
e 195 400
e 195 905
e 195 1060
e 195 1229
e 195 1001
e 195 1528
e 195 473
e 195 1525
e 195 475
e 195 1232
e 196 1058
e 196 1059
e 196 1318
e 196 1319
e 196 682
e 196 683
e 196 1004
e 196 1168
e 196 398
e 196 399
e 196 1166
e 196 1230
e 196 1002
e 196 1231
e 196 1527
e 196 906
e 196 474
e 196 476
e 196 907
e 196 1526
e 197 1261
e 197 1136
e 197 669
e 197 672
e 197 805
e 197 808
e 197 1461
e 197 1464
e 197 833
e 197 836
e 197 1477
e 197 1480
e 197 1357
e 197 1360
e 197 1505
e 197 1508
e 197 1133
e 197 1264
e 197 373
e 197 376
e 197 889
e 197 892
e 197 893
e 197 896
e 198 1262
e 198 1263
e 198 670
e 198 671
e 198 806
e 198 807
e 198 1462
e 198 1463
e 198 834
e 198 835
e 198 1478
e 198 1479
e 198 1358
e 198 1359
e 198 1506
e 198 1507
e 198 1134
e 198 1135
e 198 374
e 198 375
e 198 890
e 198 891
e 198 894
e 198 895
e 199 261
e 199 264
e 199 265
e 199 779
e 199 268
e 199 969
e 199 1309
e 199 1312
e 199 673
e 199 676
e 199 933
e 199 935
e 199 813
e 199 816
e 199 777
e 199 697
e 199 700
e 199 972
e 199 329
e 199 717
e 199 332
e 199 589
e 199 591
e 199 720
e 199 849
e 199 1209
e 199 852
e 199 1212
e 199 1509
e 199 1511
e 199 493
e 199 496
e 200 262
e 200 263
e 200 266
e 200 267
e 200 780
e 200 1310
e 200 1311
e 200 674
e 200 675
e 200 934
e 200 936
e 200 814
e 200 815
e 200 970
e 200 778
e 200 698
e 200 699
e 200 971
e 200 330
e 200 331
e 200 718
e 200 719
e 200 590
e 200 850
e 200 851
e 200 1210
e 200 592
e 200 1211
e 200 1510
e 200 1512
e 200 494
e 200 495
e 201 389
e 201 391
e 201 1177
e 201 281
e 201 1180
e 201 1521
e 201 284
e 201 421
e 201 424
e 201 429
e 201 432
e 201 433
e 201 436
e 201 933
e 201 861
e 201 864
e 201 1377
e 201 1380
e 201 936
e 201 1517
e 201 1524
e 201 1520
e 201 497
e 201 500
e 201 1145
e 201 1148
e 202 390
e 202 392
e 202 1523
e 202 282
e 202 1178
e 202 1179
e 202 283
e 202 934
e 202 423
e 202 1522
e 202 430
e 202 431
e 202 434
e 202 435
e 202 862
e 202 863
e 202 422
e 202 1378
e 202 1379
e 202 935
e 202 1518
e 202 1519
e 202 498
e 202 499
e 202 1146
e 202 1147
e 203 1157
e 203 1160
e 203 1165
e 203 1168
e 203 785
e 203 537
e 203 1425
e 203 404
e 203 1049
e 203 1052
e 203 540
e 203 1081
e 203 1084
e 203 1469
e 203 1472
e 203 1489
e 203 1492
e 203 401
e 203 1257
e 203 1259
e 203 1428
e 203 788
e 204 1158
e 204 1159
e 204 1166
e 204 1167
e 204 402
e 204 786
e 204 1427
e 204 538
e 204 1050
e 204 539
e 204 1051
e 204 403
e 204 1082
e 204 1083
e 204 1470
e 204 1471
e 204 1490
e 204 1491
e 204 1426
e 204 1258
e 204 1260
e 204 787
e 205 1141
e 205 748
e 205 985
e 205 1268
e 205 521
e 205 1144
e 205 524
e 205 1265
e 205 988
e 205 337
e 205 745
e 205 340
e 205 309
e 205 311
e 205 984
e 205 473
e 205 981
e 205 476
e 206 1143
e 206 1266
e 206 1142
e 206 522
e 206 523
e 206 746
e 206 1267
e 206 987
e 206 338
e 206 339
e 206 310
e 206 983
e 206 312
e 206 474
e 206 475
e 206 986
e 206 747
e 206 982
e 207 1196
e 207 517
e 207 520
e 207 661
e 207 664
e 207 389
e 207 1193
e 207 392
e 207 1077
e 207 1080
e 207 713
e 207 715
e 207 589
e 207 592
e 207 1245
e 207 1248
e 207 741
e 207 744
e 207 873
e 207 876
e 207 377
e 207 380
e 208 390
e 208 519
e 208 662
e 208 663
e 208 518
e 208 391
e 208 1194
e 208 1195
e 208 1078
e 208 1079
e 208 714
e 208 716
e 208 590
e 208 591
e 208 1246
e 208 1247
e 208 742
e 208 743
e 208 874
e 208 875
e 208 378
e 208 379
e 209 641
e 209 1457
e 209 644
e 209 1349
e 209 1352
e 209 1037
e 209 1005
e 209 1040
e 209 1512
e 209 973
e 209 1460
e 209 1007
e 209 976
e 209 913
e 209 916
e 209 569
e 209 1509
e 209 572
e 210 642
e 210 643
e 210 1350
e 210 1351
e 210 1458
e 210 1511
e 210 1459
e 210 1038
e 210 974
e 210 975
e 210 1006
e 210 914
e 210 915
e 210 1039
e 210 570
e 210 571
e 210 1008
e 210 1510
e 211 780
e 211 1253
e 211 1256
e 211 713
e 211 716
e 211 1004
e 211 777
e 211 1001
e 211 1305
e 211 1308
e 212 1254
e 212 1255
e 212 714
e 212 715
e 212 778
e 212 1003
e 212 1002
e 212 1306
e 212 1307
e 212 779
e 213 481
e 213 737
e 213 1044
e 213 484
e 213 1285
e 213 1288
e 213 1432
e 213 237
e 213 240
e 213 1041
e 213 1369
e 213 740
e 213 501
e 213 504
e 213 633
e 213 1429
e 213 1372
e 213 636
e 213 1277
e 213 1280
e 214 1431
e 214 482
e 214 483
e 214 1286
e 214 1287
e 214 738
e 214 238
e 214 239
e 214 1042
e 214 1043
e 214 502
e 214 503
e 214 1279
e 214 1370
e 214 634
e 214 635
e 214 1371
e 214 1278
e 214 739
e 214 1430
e 215 1121
e 215 1304
e 215 444
e 215 1225
e 215 1228
e 215 441
e 215 1124
e 215 1301
e 215 1260
e 215 313
e 215 316
e 215 1257
e 216 1122
e 216 1123
e 216 1226
e 216 1227
e 216 1302
e 216 1303
e 216 442
e 216 314
e 216 315
e 216 1258
e 216 443
e 216 1259
e 217 609
e 217 612
e 217 837
e 217 840
e 217 937
e 217 940
e 217 1073
e 217 1076
e 217 1000
e 217 997
e 217 701
e 217 704
e 218 610
e 218 611
e 218 838
e 218 839
e 218 938
e 218 939
e 218 1074
e 218 1075
e 218 999
e 218 702
e 218 703
e 218 998
e 219 1276
e 219 1008
e 219 1449
e 219 1005
e 219 1452
e 219 749
e 219 752
e 219 1273
e 219 309
e 219 312
e 219 409
e 219 412
e 220 1450
e 220 1007
e 220 1451
e 220 750
e 220 751
e 220 1006
e 220 310
e 220 311
e 220 1274
e 220 410
e 220 411
e 220 1275